db/data/316105147841713198261003312710223495.z3.out
sat
-------------------
17.569997049
